# Insiemi
set EMPLOYEES := 1 2 3 4 5 6 7 8 ;

set DEPARTMENTS := 0 1 2 3 ;

param j0 :=
1 1
2 2
3 3
4 2
5 1
6 1
7 2
8 3
;

param s : 0 1 2 3 :=
1 35.6 68 63 47 
2 38.4 80 49 63 
3 38.4 67 53 72 
4 33.8 48 72 49 
5 38.800000000000004 52 63 79 
6 36.6 68 63 52 
7 29.799999999999997 55 49 45 
8 29.6 45 57 46 
;

param M :=
1 2
2 2
3 2
;

param Smax :=
1 80.0
2 80.0
3 80.0
4 80.0
5 80.0
6 80.0
7 80.0
8 80.0
;

param epsilon := 0.001;

param tStart := 20000;

param tEnd := 28800;

param onpause := 70;

param alpha : 0 1 2 3 :=
1 1 1 1 1 
2 1 1 1 1 
3 1 1 1 1 
4 1 1 1 1 
5 1 1 1 1 
6 1 1 1 1 
7 1 1 1 1 
8 1 1 1 1 
;

param T : 1 2 3 :=
1 0 9 6 
2 9 0 9 
3 6 9 0 
;

